10	5
0	3	2	1	3
1	1	5
2	2	6	10
3	1	8
4	1	6
5	2	10	7
6	1	9
7	1	4
8	0
9	1	11
10	1	11
11	0
0	0	0	0	0	0	0
1	1	1	2	4	0	1
2	10	2	0	1	5	1
3	4	5	2	5	4	2
4	10	0	0	0	2	2
5	7	3	2	5	1	5
6	2	4	1	0	0	0
7	5	5	2	1	5	4
8	6	0	0	4	1	0
9	9	5	1	4	2	0
10	3	5	4	3	3	4
11	0	0	0	0	0	0
5	5	5	5	5
